c nombre: 20
c densidad: 0.3
p edges 20 53
e 1 11
e 1 15
e 1 20
e 2 8
e 2 11
e 2 12
e 2 15
e 3 4
e 3 5
e 3 9
e 3 14
e 3 16
e 4 6
e 4 7
e 4 8
e 4 12
e 4 15
e 5 6
e 5 9
e 5 11
e 5 12
e 5 14
e 5 15
e 6 11
e 6 13
e 6 20
e 7 10
e 7 14
e 7 17
e 7 18
e 8 10
e 8 16
e 9 11
e 9 15
e 9 19
e 10 17
e 11 12
e 11 17
e 12 13
e 12 17
e 12 18
e 12 19
e 12 20
e 13 16
e 13 17
e 14 19
e 14 20
e 15 16
e 15 17
e 15 19
e 16 18
e 18 19
e 19 20
